NAME : in_house_8_21
TYPE : TSP
DIMENSION : 8
EDGE_WEIGHT_TYPE : EXPLICIT
EDGE_WEIGHT_FORMAT : UPPER_ROW
COMMENT : INVERSION_SHIFT=2
EDGE_WEIGHT_SECTION
16
6
10
7
61
47
2
28
53
34
53
27
30
34
30
47
7
6
32
51
44
17
11
26
7
51
62
64
